10
0 1 2
0 2 2
0 3 7
0 4 2
0 5 8
0 6 9
0 7 1
0 8 9
0 9 1
1 2 8
1 3 8
1 4 10
1 5 5
1 6 9
1 7 3
1 8 7
1 9 5
2 3 1
2 4 2
2 5 1
2 6 9
2 7 1
2 8 10
2 9 2
3 4 6
3 5 5
3 6 5
3 7 10
3 8 2
3 9 7
4 5 9
4 6 5
4 7 1
4 8 8
4 9 6
5 6 10
5 7 6
5 8 9
5 9 8
6 7 7
6 8 6
6 9 5
7 8 6
7 9 10
8 9 6
